AME : levi30_2
COMMENT : 30: 30x24 -city problem (levikoppenhol)
TYPE : TSP
DIMENSION : 30
EDGE_WEIGHT_TYPE : EUC_2D
NODE_COORD_SECTION
1 5 18
2 10 4
3 12 30
4 14 6
5 20 24
6 13 5
7 5 2
8 7 0
9 21 9
10 4 26
11 22 29
12 22 8
13 23 10
14 13 14
15 14 19
16 2 10
17 14 29
18 4 11
19 0 29
20 1 2
21 19 6
22 11 19
23 20 0
24 13 15
25 7 9
26 19 2
27 16 8
28 15 6
29 14 17
30 18 24
EOF